
Gurobi 11.0.1 (win64) logging started Tue May 14 18:55:28 2024

Set parameter LogFile to value "output/solver_log8.txt"
Gurobi Optimizer version 11.0.1 build v11.0.1rc0 (win64 - Windows 11.0 (22631.2))

CPU model: 11th Gen Intel(R) Core(TM) i7-1165G7 @ 2.80GHz, instruction set [SSE2|AVX|AVX2|AVX512]
Thread count: 4 physical cores, 8 logical processors, using up to 8 threads

Optimize a model with 1161 rows, 304 columns and 21382 nonzeros
Model fingerprint: 0x776a23f1
Variable types: 88 continuous, 216 integer (216 binary)
Coefficient statistics:
  Matrix range     [4e-01, 1e+05]
  Objective range  [1e+00, 1e+02]
  Bounds range     [1e+00, 1e+00]
  RHS range        [1e-02, 1e+05]

User MIP start produced solution with objective 57399.2 (0.00s)
User MIP start produced solution with objective 57399.2 (0.00s)
Loaded user MIP start with objective 57399.2

Presolve removed 129 rows and 134 columns
Presolve time: 0.02s
Presolved: 1032 rows, 170 columns, 20345 nonzeros
Variable types: 79 continuous, 91 integer (89 binary)

Root relaxation: cutoff, 0 iterations, 0.00 seconds (0.01 work units)

Explored 1 nodes (0 simplex iterations) in 0.05 seconds (0.09 work units)
Thread count was 8 (of 8 available processors)

Solution count 2: 57399.2 57399.2 

Optimal solution found (tolerance 1.00e-04)
Best objective 5.739923114569e+04, best bound 5.739923114569e+04, gap 0.0000%
